TOUR_SECTION
50
103
46
153
13
58
57
173
143
157
128
27
97
175
76
24
87
146
192
11
155
190
141
170
44
179
3
63
31
55
10
194
5
12
61
86
172
148
124
73
83
134
79
109
42
26
113
156
174
96
71
77
123
164
186
110
171
114
81
169
105
122
59
162
144
130
41
115
67
51
9
43
127
95
133
163
32
99
198
19
104
52
60
49
126
28
74
108
118
116
94
200
111
48
199
197
66
75
16
29
88
189
45
89
80
14
142
92
149
2
159
68
168
20
38
22
136
137
39
35
6
7
64
112
47
8
70
4
193
69
17
25
54
91
178
154
15
101
117
98
140
119
30
1
139
166
40
150
121
102
158
107
132
160
183
138
188
21
152
36
125
56
187
18
62
135
131
129
100
177
176
165
161
184
33
167
53
185
72
182
85
181
37
180
23
90
196
34
147
120
84
93
195
106
78
191
145
82
151
65
-1
EOF